

acell 5.5607649512  5.5607649512  8.7411694931

rprim
8.6602540378E-01 -5.0000000000E-01  0.0000000000E+00
0.0000000000E+00  1.0000000000E+00  0.0000000000E+00
0.0000000000E+00  0.0000000000E+00  1.0000000000E+00


natom 2
xred
0.0  0.0  0.0
0.66666666667  0.33333333333  0.50000000000


typat 1 1

periodcell -7 7 -7 7 -7 7 #copy cell 0 times in -x direction, 14 times in x direction and so on. 

uvtw1 1 0 -1 1  #directions in four index system
#if there is no uvtw1, then use plane hkl1 to calculate first direction does not work
#hkl1 1 0 2 
uvtw2 -1 0 1 1  
uvtw3 1 -2 1 0

mul 3 3 1 

test 1
