#O1 orthogonal hcp titanium cell for tests

#acell 5.55  5.55  8.8

rprim
sqrt(0.75) -5.0000000000E-01  0.0000000000E+00
0.0000000000E+00  1.0000000000E+00  0.0000000000E+00
0.0000000000E+00  0.0000000000E+00  1.0000000000E+00


natom 2
xred
0.0  0.0  0.0
2/3  1/3  0.50000000000


typat 1 1

periodcell -15 15 -15 15 -15 15 #copy cell 0 times in -x direction, 14 times in x direction and so on. 


hkl1 1 -2 0 #should be parrallel to uvtw2 and uvtw3
uvtw1 -1 2 -1 0  #directions in four index system [0 3 0]
#if there is no uvtw1, then use plane hkl1 to calculate first direction does not work
uvtw2 -1 0 1 0  #[-2 -1 0]
uvtw3 0 0 0 1

mul 2/3 1 1 



#name O1 deldist 3 slicepms 0 0 3 shiftcell 0 0.22 #
name o1b_ml deldist 3 slicepms 0 0 3 shiftcell 0 0.22 #

##o1b_ml v1-v25
#acell 5.55  5.55  8.8
#a_c_conv 1 4 4 5

##o1b_ml v26-v50
acell 5.546  5.546  8.757
a_c_conv 26 0.5 0.5 5 #start version, change a [-0.5% : +0.5%], change c [-0.5% : +0.5%], number of steps


test 1
