acell      1.4686600000E+01  4.9034385995E+01  8.7862000000E+00 Bohr

rprim 1 0 0 0 1 0 0 0 1 

periodcell 0 1 0 1 0 1 #copy cell 0 times in -x direction, 1 times in x direction and so on. 

             xred     -9.0980376751E-03  1.6203282456E-01  4.7848795788E-01
                       5.5722617576E-02  2.7327470826E-01  4.5079304724E-01
                       1.1686894961E-01  3.8623031492E-01  4.4500898560E-01
                      -4.5609142756E-02  5.0024245257E-01 -1.7477247492E-03
                       1.8434454814E-01  5.0019054964E-01  4.9773742185E-01
                       1.2869434285E-01  1.5031553624E-04 -1.8111594418E-03
                       1.1517273186E-01  1.0605222826E-01 -1.9062927978E-02
                       2.9422761794E-01  6.0578459713E-02  4.9816733404E-01
                       1.3756237351E-01  2.1525469553E-01 -4.2388027652E-02
                       3.4205474302E-01  1.8714239550E-01  4.2882658812E-01
                       1.9419861924E-01  3.2653635991E-01 -5.3433214258E-02
                       4.0305472507E-01  3.0830640576E-01  4.4511238408E-01
                       2.5189487684E-01  4.3963131194E-01 -4.4216119597E-02
                       4.6324226440E-01  4.2056827001E-01  4.0404639164E-01
                       4.6407187006E-01  5.2889033884E-02  2.7557894144E-03
                       6.2307499519E-01  1.4639047979E-04  4.9833219736E-01
                       4.3444900721E-01  1.5171285586E-01 -8.4778258193E-02
                       6.3283014930E-01  1.1171388319E-01  4.7108161635E-01
                       4.8273589621E-01  2.5260302288E-01 -4.1430401659E-02
                       6.9403324596E-01  2.2695596791E-01  4.6269423568E-01
                       5.4943587408E-01  3.6217679027E-01 -7.3118674224E-02
                       7.6036613256E-01  3.3956339585E-01  4.4552661048E-01
                       5.9370900676E-01  4.7300108835E-01 -1.9305239611E-01
                       8.2122032130E-01  4.4651279952E-01  4.2413179293E-01
                       7.9268839722E-01  5.4649167097E-02 -1.7991768451E-02
                       9.5814177128E-01  5.3278886315E-02  4.8532331003E-01
                       7.8415977423E-01  1.6700003619E-01 -2.5200959313E-02
                       8.3789043295E-01  2.8095049402E-01 -4.8620953677E-02
                       9.0205017212E-01  3.9031281207E-01 -5.7555208492E-02
                      -1.0066063042E-02  8.3841699161E-01  5.1770057174E-01
                       5.4727630841E-02  7.2709831776E-01  5.4489790833E-01
                       1.1589181947E-01  6.1415250330E-01  5.5050648149E-01
                       1.1475134875E-01  8.9432802297E-01  1.5608040720E-02
                       2.9419850194E-01  9.3979474814E-01  4.9861556365E-01
                       1.3657303446E-01  7.8525006369E-01  3.8236414503E-02
                       3.4083591238E-01  8.1335658768E-01  5.6784651655E-01
                       1.9286739068E-01  6.7394307079E-01  4.8842304786E-02
                       4.0198051192E-01  6.9207515894E-01  5.5023973176E-01
                       2.5148459224E-01  5.6091617134E-01  4.0047736568E-02
                       4.6249765693E-01  5.7977948408E-01  5.9099258011E-01
                       4.6393812140E-01  9.4743619711E-01 -6.3563113612E-03
                       4.3357153564E-01  8.4862522953E-01  8.1703545346E-02
                       6.3226451938E-01  8.8869169824E-01  5.2527049677E-01
                       4.8146710331E-01  7.4778535079E-01  3.6810839667E-02
                       6.9254671704E-01  7.7346080455E-01  5.3331170813E-01
                       5.4844876418E-01  6.3829843711E-01  6.7955145127E-02
                       7.5948998219E-01  6.6082168073E-01  5.4998828408E-01
                       5.9334012381E-01  5.2738161870E-01  1.8841699242E-01
                       8.2050508558E-01  5.5385823003E-01  5.7172740268E-01
                       7.9224773383E-01  9.4582040229E-01  1.4668959412E-02
                       9.5771335719E-01  9.4718172544E-01  5.1124110223E-01
                       7.8318347832E-01  8.3340080242E-01  2.1192079888E-02
                       8.3674838615E-01  7.1949143383E-01  4.4273370015E-02
                       9.0100357225E-01  6.1009625145E-01  5.3220784048E-02


ntypat           1
typat      1  1  1  1  1  1  1  1  1  1  1  1  1  1  1  1  1  1  1  1
                       1  1  1  1  1  1  1  1  1  1  1  1  1  1  1  1  1  1  1  1
                       1  1  1  1  1  1  1  1  1  1  1  1  1  1
natom          54
znucl       22.00000