acell 0 0 4.94065645841e-324 
rprim 1 0 0 0 1 0 0 0 1
xred nan nan 0 
ntypat 1
typat 1*1 
natom 1
